
Gurobi 11.0.3 (linux64) logging started Thu Apr 16 21:12:32 2026

Set parameter LogFile to value "tree/results/fish/fish_depth-3_run-4/Full MIP/LogFile_FullModel.txt"
Gurobi Optimizer version 11.0.3 build v11.0.3rc0 (linux64 - "CentOS Linux 7 (Core)")

CPU model: Intel(R) Xeon(R) Platinum 8260 CPU @ 2.40GHz, instruction set [SSE2|AVX|AVX2|AVX512]
Thread count: 96 physical cores, 192 logical processors, using up to 32 threads

Optimize a model with 244964 rows, 171506 columns and 1202820 nonzeros
Model fingerprint: 0x3ad04dbe
Model has 24480 general constraints
Variable types: 97994 continuous, 73512 integer (73512 binary)
Coefficient statistics:
  Matrix range     [3e-04, 1e+04]
  Objective range  [3e-04, 1e+04]
  Bounds range     [1e+00, 3e+03]
  RHS range        [1e-04, 3e+03]

User MIP start produced solution with objective -143599 (0.62s)
Loaded user MIP start with objective -143599

Presolve added 24472 rows and 73440 columns
Presolve time: 2.95s
Presolved: 269436 rows, 244946 columns, 1350324 nonzeros
Presolved model has 73440 SOS constraint(s)
Variable types: 97994 continuous, 146952 integer (146952 binary)

Deterministic concurrent LP optimizer: primal simplex, dual simplex, and barrier
Showing barrier log only...

Root relaxation presolved: 269436 rows, 244946 columns, 1350324 nonzeros

Root barrier log...

Ordering time: 0.11s

Barrier statistics:
 Dense cols : 28
 AA' NZ     : 1.282e+06
 Factor NZ  : 3.688e+06 (roughly 240 MB of memory)
 Factor Ops : 5.550e+07 (less than 1 second per iteration)
 Threads    : 30

                  Objective                Residual
Iter       Primal          Dual         Primal    Dual     Compl     Time
   0  -1.38485859e+05  2.35571940e+09  9.00e+03 5.68e-14  7.98e+05     7s
   1  -9.88253722e+04  3.64105208e+09  3.60e+03 2.57e+01  2.68e+05     7s
   2  -6.42925517e+04  3.56738389e+09  3.89e+02 5.96e+00  3.42e+04     8s
   3  -1.62671777e+04  2.05049491e+09  3.86e+01 5.97e-01  5.59e+03     8s
   4  -1.62683564e+03  3.26474439e+08  3.82e+00 5.96e-02  6.78e+02     9s
   5  -1.62502769e+02  3.84259120e+07  3.83e-01 5.96e-03  7.39e+01     9s
   6  -1.60694491e+01  3.92783927e+06  3.89e-02 5.96e-04  7.38e+00     9s
   7  -1.42575777e+00  3.96530903e+05  4.45e-03 6.02e-05  7.44e-01    10s
   8   4.25909477e-02  4.40351391e+04  7.72e-04 6.68e-06  8.25e-02    10s
   9   2.74146554e-01  8.61914698e+03  7.65e-05 1.30e-06  1.62e-02    10s
  10   8.47246574e-01  2.72791225e+03  7.59e-06 3.46e-07  5.13e-03    11s
  11   9.84735325e-01  4.92429956e+02  2.68e-06 6.17e-08  9.24e-04    11s
  12   9.15493028e-01  5.48066829e+01  2.65e-07 6.64e-09  1.01e-04    12s
  13   9.91549302e-01  6.58555965e+00  2.65e-08 6.64e-10  1.05e-05    12s
  14   9.99154930e-01  1.55886275e+00  2.67e-09 6.64e-11  1.05e-06    13s
  15   9.99915493e-01  1.05588683e+00  2.69e-10 6.64e-12  1.05e-07    13s
  16   9.99991549e-01  1.00558868e+00  2.82e-11 6.64e-13  1.05e-08    14s
  17   9.99999155e-01  1.00055887e+00  3.37e-12 6.64e-14  1.05e-09    14s
  18   9.99999915e-01  1.00005589e+00  4.69e-13 6.64e-15  1.05e-10    15s
  19   9.99999992e-01  1.00000559e+00  4.26e-13 1.42e-14  1.05e-11    16s
  20   9.99999999e-01  1.00000056e+00  4.26e-13 6.65e-17  1.05e-12    16s
  21   1.00000000e+00  1.00000006e+00  4.26e-13 6.65e-18  1.05e-13    17s
  22   1.00000000e+00  1.00000001e+00  4.33e-13 3.47e-18  1.05e-14    17s

Barrier solved model in 22 iterations and 17.11 seconds (10.12 work units)
Optimal objective 1.00000000e+00


Root crossover log...

   11893 DPushes remaining with DInf 0.0000000e+00                17s
       0 DPushes remaining with DInf 0.0000000e+00                17s

   96098 PPushes remaining with PInf 0.0000000e+00                18s
       0 PPushes remaining with PInf 0.0000000e+00                20s

  Push phase complete: Pinf 0.0000000e+00, Dinf 0.0000000e+00     20s


Root simplex log...

Iteration    Objective       Primal Inf.    Dual Inf.      Time
   96102    1.0000000e+00   1.756781e-05   0.000000e+00     20s
   96105    1.0000000e+00   0.000000e+00   0.000000e+00     20s
   96105    1.0000000e+00   0.000000e+00   0.000000e+00     21s
Concurrent spin time: 0.01s

Solved with barrier

Root relaxation: objective 1.000000e+00, 96105 iterations, 15.57 seconds (9.23 work units)
Total elapsed time = 65.23s (DegenMoves)

    Nodes    |    Current Node    |     Objective Bounds      |     Work
 Expl Unexpl |  Obj  Depth IntInf | Incumbent    BestBd   Gap | It/Node Time

     0     0    1.00000    0 24914 -143599.32    1.00000   100%     -   66s
     0     2    1.00000    0 24914 -143599.32    1.00000   100%     - 1294s
     1     4    1.00000    1 24873 -143599.32    1.00000   100% 36661 2301s
     3     7    1.00000    2 24832 -143599.32    1.00000   100% 49689 3600s

Explored 6 nodes (416437 simplex iterations) in 3600.15 seconds (3403.83 work units)
Thread count was 32 (of 192 available processors)

Solution count 1: -143599 

Time limit reached
Best objective -1.435993215686e+05, best bound 1.000000000000e+00, gap 100.0007%

User-callback calls 1903653, time in user-callback 9.50 sec
